1 3 100 87890.03
1 3 200 88982.82
1 3 300 88982.26
2 3 100 103602.58
2 3 200 104619.54
2 3 300 105064.29
3 3 100 102461.52
3 3 200 103171.05
3 3 300 102654.59
4 3 100 102130.40
4 3 200 102012.72
4 3 300 101421.54
5 3 100 98492.13
5 3 200 98909.92
5 3 300 99195.25
